networks/zoo_110_1782/zoo_110_1782-lower.txt
Number of groups: 68
Flow 48: {32 6 0} {6 5 1} {5 10 2} {10 65 3} 
Flow 58: {2 4 0} {4 1 1} {1 26 2} {26 27 3} {27 82 4} 
Flow 61: {11 20 0} {20 21 1} 
Flow 61: {14 39 0} 
Flow 96: {23 78 0} 
Flow 107: {26 34 0} {34 33 1} {33 35 2} 
Flow 152: {2 47 0} 
Flow 156: {4 3 0} {3 46 1} {46 54 2} {54 51 3} {51 106 4} 
Flow 193: {6 7 0} {7 14 1} {14 40 2} {40 41 3} 
Flow 216: {25 17 0} {17 11 1} {11 12 2} {12 67 3} 
Flow 265: {8 9 0} {9 64 1} 
Flow 276: {5 6 0} {6 32 1} {32 33 2} 
Flow 319: {42 25 0} {25 37 1} 
Flow 321: {9 10 0} {10 39 1} {39 94 2} 
Flow 405: {43 44 0} {44 45 1} {45 100 2} 
Flow 436: {13 1 0} {1 4 1} {4 2 2} {2 57 3} 
Flow 460: {13 27 0} {27 34 1} {34 89 2} 
Flow 528: {24 22 0} {22 23 1} {23 31 2} {31 86 3} 
Flow 537: {55 46 0} {46 101 1} 
Flow 600: {18 19 0} {19 21 1} {21 22 2} {22 77 3} 
Flow 607: {39 14 0} {14 35 1} {35 33 2} {33 88 3} 
Flow 645: {19 20 0} {20 12 1} {12 15 2} {15 16 3} 
Flow 676: {39 10 0} {10 5 1} {5 8 2} {8 63 3} 
Flow 693: {20 11 0} {11 17 1} {17 36 2} {36 91 3} 
Flow 701: {3 47 0} {47 102 1} 
Flow 756: {21 19 0} {19 18 1} {18 17 2} {17 25 3} {25 80 4} 
Flow 786: {21 20 0} {20 75 1} 
Flow 793: {31 28 0} {28 29 1} {29 84 2} 
Flow 898: {54 52 0} {52 107 1} 
Flow 904: {27 26 0} {26 32 1} {32 7 2} {7 62 3} 
Flow 913: {29 16 0} {16 15 1} {15 12 2} {12 11 3} 
Flow 916: {28 31 0} {31 23 1} {23 22 2} {22 21 3} {21 76 4} 
Flow 923: {12 20 0} {20 19 1} {19 74 2} 
Flow 952: {30 35 0} {35 90 1} 
Flow 979: {22 24 0} {24 15 1} {15 70 2} 
Flow 1018: {33 34 0} {34 27 1} {27 13 2} 
Flow 1053: {33 30 0} {30 14 1} {14 51 2} {51 53 3} {53 108 4} 
Flow 1056: {34 26 0} {26 1 1} {1 56 2} 
Flow 1127: {35 14 0} {14 10 1} {10 9 2} {9 38 3} {38 93 4} 
Flow 1129: {35 30 0} {30 41 1} {41 96 2} 
Flow 1154: {36 17 0} {17 72 1} 
Flow 1170: {36 37 0} {37 92 1} 
Flow 1176: {36 42 0} {42 43 1} {43 98 2} 
Flow 1212: {37 36 0} 
Flow 1214: {37 25 0} {25 42 1} {42 39 2} {39 40 3} {40 95 4} 
Flow 1250: {38 45 0} {45 44 1} {44 99 2} 
Flow 1329: {40 14 0} {14 30 1} {30 85 2} 
Flow 1351: {41 30 1} {30 33 2} {33 32 3} {32 26 4} 
Flow 1351: {26 3 0} {3 58 1} 
Flow 1370: {41 40 0} {40 39 1} {39 42 2} {42 97 3} 
Flow 1387: {1 13 0} {13 68 1} 
Flow 1400: {16 29 0} {29 28 1} {28 83 2} 
Flow 1404: {7 32 0} {32 87 1} 
Flow 1419: {49 48 0} 
Flow 1423: {51 52 0} 
Flow 1444: {15 24 0} {24 79 1} 
Flow 1508: {45 38 0} {38 9 1} {9 8 2} {8 5 3} {5 60 4} 
Flow 1513: {10 14 0} {14 69 1} 
Flow 1527: {44 43 0} {43 42 1} {42 36 2} 
Flow 1561: {3 26 0} {26 81 1} 
Flow 1582: {46 55 0} {55 7 1} {7 49 2} {49 104 3} 
Flow 1633: {49 50 0} {50 51 1} {51 54 2} {54 109 3} 
Flow 1677: {50 48 0} {48 103 1} 
Flow 1682: {50 49 0} {49 7 1} {7 55 2} {55 110 3} 
Flow 1731: {17 18 0} 
Flow 1736: {52 51 0} {51 50 1} {50 105 2} 
Flow 1737: {54 46 0} {46 3 1} {3 4 2} {4 59 3} 
Flow 1739: {53 51 0} {51 14 1} {14 7 2} {7 6 3} {6 61 4} 
Time taken running everything: 3602 seconds
