networks/zoo_110_1782/zoo_110_1782-lower.sol
<?xml version = "1.0" encoding="UTF-8" standalone="yes"?>
<CPLEXSolution version="1.2">
 <header
   problemName="networks/zoo_110_1782/zoo_110_1782-lower.lp"
   solutionName="incumbent"
   solutionIndex="-1"
   objectiveValue="52"
   solutionTypeValue="3"
   solutionTypeString="primal"
   solutionStatusValue="101"
   solutionStatusString="integer optimal solution"
   solutionMethodString="mip"
   primalFeasible="1"
   dualFeasible="1"
   MIPNodes="0"
   MIPIterations="0"
   writeLevel="3"/>
 <quality
   epInt="1.0000000000000001e-05"
   epRHS="9.9999999999999995e-07"
   maxIntInfeas="0"
   maxPrimalInfeas="0"
   maxX="1"
   maxSlack="1"/>
 <variables>
  <variable name="Y(1,2)" index="1" value="1"/>
  <variable name="Y(2,3)" index="109" value="1"/>
  <variable name="Y(3,4)" index="217" value="1"/>
  <variable name="Y(4,5)" index="325" value="1"/>
  <variable name="Y(5,6)" index="433" value="1"/>
  <variable name="Y(6,7)" index="541" value="1"/>
  <variable name="Y(7,8)" index="649" value="1"/>
  <variable name="Y(8,9)" index="757" value="1"/>
  <variable name="Y(9,10)" index="865" value="1"/>
  <variable name="Y(10,14)" index="976" value="1"/>
  <variable name="Y(11,15)" index="1084" value="1"/>
  <variable name="Y(12,17)" index="1193" value="1"/>
  <variable name="Y(13,19)" index="1302" value="1"/>
  <variable name="Y(14,20)" index="1410" value="1"/>
  <variable name="Y(15,21)" index="1518" value="1"/>
  <variable name="Y(16,22)" index="1626" value="1"/>
  <variable name="Y(17,24)" index="1735" value="1"/>
  <variable name="Y(18,25)" index="1843" value="1"/>
  <variable name="Y(19,27)" index="1952" value="1"/>
  <variable name="Y(20,28)" index="2060" value="1"/>
  <variable name="Y(21,29)" index="2168" value="1"/>
  <variable name="Y(22,31)" index="2277" value="1"/>
  <variable name="Y(23,33)" index="2386" value="1"/>
  <variable name="Y(24,34)" index="2494" value="1"/>
  <variable name="Y(25,36)" index="2603" value="1"/>
  <variable name="Y(26,38)" index="2712" value="1"/>
  <variable name="Y(27,40)" index="2821" value="1"/>
  <variable name="Y(28,41)" index="2929" value="1"/>
  <variable name="Y(29,42)" index="3037" value="1"/>
  <variable name="Y(30,44)" index="3146" value="1"/>
  <variable name="Y(31,45)" index="3254" value="1"/>
  <variable name="Y(32,46)" index="3362" value="1"/>
  <variable name="Y(33,47)" index="3470" value="1"/>
  <variable name="Y(34,48)" index="3578" value="1"/>
  <variable name="Y(35,49)" index="3686" value="1"/>
  <variable name="Y(36,50)" index="3794" value="1"/>
  <variable name="Y(37,51)" index="3902" value="1"/>
  <variable name="Y(38,54)" index="4012" value="1"/>
  <variable name="Y(39,55)" index="4120" value="1"/>
  <variable name="Y(40,1)" index="4173" value="1"/>
  <variable name="Y(88,13)" index="9321" value="1"/>
  <variable name="Y(96,23)" index="10187" value="1"/>
  <variable name="Y(99,26)" index="10511" value="1"/>
  <variable name="Y(103,30)" index="10943" value="1"/>
  <variable name="Y(107,35)" index="11376" value="1"/>
  <variable name="Y(109,37)" index="11592" value="1"/>
  <variable name="Y(111,39)" index="11808" value="1"/>
  <variable name="Y(115,43)" index="12240" value="1"/>
  <variable name="Y(204,53)" index="21773" value="1"/>
  <variable name="Y(216,12)" index="23016" value="1"/>
  <variable name="Y(234,32)" index="24962" value="1"/>
  <variable name="Y(254,52)" index="27122" value="1"/>
  <variable name="X(1,4,1)" index="190674" value="1"/>
  <variable name="X(1,13,88)" index="192543" value="1"/>
  <variable name="X(1,26,2)" index="194239" value="1"/>
  <variable name="X(1,56,40)" index="196059" value="1"/>
  <variable name="X(2,4,40)" index="197841" value="1"/>
  <variable name="X(2,47,72)" index="199655" value="1"/>
  <variable name="X(2,57,1)" index="201366" value="1"/>
  <variable name="X(3,4,80)" index="203227" value="1"/>
  <variable name="X(3,26,79)" index="205008" value="1"/>
  <variable name="X(3,46,32)" index="206743" value="1"/>
  <variable name="X(3,47,33)" index="208526" value="1"/>
  <variable name="X(3,58,2)" index="210277" value="1"/>
  <variable name="X(4,1,40)" index="212097" value="1"/>
  <variable name="X(4,2,1)" index="213840" value="1"/>
  <variable name="X(4,3,41)" index="215662" value="1"/>
  <variable name="X(4,59,3)" index="217406" value="1"/>
  <variable name="X(5,6,258)" index="219443" value="1"/>
  <variable name="X(5,8,7)" index="220974" value="1"/>
  <variable name="X(5,10,8)" index="222757" value="1"/>
  <variable name="X(5,60,4)" index="224535" value="1"/>
  <variable name="X(6,5,4)" index="226317" value="1"/>
  <variable name="X(6,7,164)" index="228259" value="1"/>
  <variable name="X(6,32,159)" index="230036" value="1"/>
  <variable name="X(6,61,5)" index="231664" value="1"/>
  <variable name="X(7,6,211)" index="233652" value="1"/>
  <variable name="X(7,14,10)" index="235233" value="1"/>
  <variable name="X(7,32,207)" index="237212" value="1"/>
  <variable name="X(7,49,34)" index="238821" value="1"/>
  <variable name="X(7,55,198)" index="240767" value="1"/>
  <variable name="X(7,62,6)" index="242357" value="1"/>
  <variable name="X(8,5,258)" index="244391" value="1"/>
  <variable name="X(8,9,265)" index="246180" value="1"/>
  <variable name="X(8,63,7)" index="247704" value="1"/>
  <variable name="X(9,8,290)" index="249769" value="1"/>
  <variable name="X(9,10,296)" index="251557" value="1"/>
  <variable name="X(9,38,26)" index="253069" value="1"/>
  <variable name="X(9,64,8)" index="254833" value="1"/>
  <variable name="X(10,5,336)" index="256943" value="1"/>
  <variable name="X(10,9,8)" index="258397" value="1"/>
  <variable name="X(10,14,158)" index="260329" value="1"/>
  <variable name="X(10,39,170)" index="262123" value="1"/>
  <variable name="X(10,65,9)" index="263744" value="1"/>
  <variable name="X(11,12,11)" index="265528" value="1"/>
  <variable name="X(11,17,373)" index="267672" value="1"/>
  <variable name="X(11,20,14)" index="269095" value="1"/>
  <variable name="X(12,11,414)" index="271277" value="1"/>
  <variable name="X(12,15,11)" index="272656" value="1"/>
  <variable name="X(12,20,421)" index="274848" value="1"/>
  <variable name="X(12,67,216)" index="276425" value="1"/>
  <variable name="X(13,1,435)" index="278426" value="1"/>
  <variable name="X(13,27,454)" index="280227" value="1"/>
  <variable name="X(13,68,88)" index="281643" value="1"/>
  <variable name="X(14,7,296)" index="283633" value="1"/>
  <variable name="X(14,10,214)" index="285333" value="1"/>
  <variable name="X(14,30,183)" index="287084" value="1"/>
  <variable name="X(14,35,187)" index="288870" value="1"/>
  <variable name="X(14,39,11)" index="290476" value="1"/>
  <variable name="X(14,40,27)" index="292274" value="1"/>
  <variable name="X(14,51,203)" index="294232" value="1"/>
  <variable name="X(14,69,10)" index="295821" value="1"/>
  <variable name="X(15,12,507)" index="298100" value="1"/>
  <variable name="X(15,16,20)" index="299395" value="1"/>
  <variable name="X(15,24,17)" index="301174" value="1"/>
  <variable name="X(15,70,11)" index="302950" value="1"/>
  <variable name="X(16,15,910)" index="305631" value="1"/>
  <variable name="X(16,29,20)" index="306523" value="1"/>
  <variable name="X(17,11,11)" index="308296" value="1"/>
  <variable name="X(17,18,13)" index="310080" value="1"/>
  <variable name="X(17,25,373)" index="312222" value="1"/>
  <variable name="X(17,36,399)" index="314030" value="1"/>
  <variable name="X(17,72,12)" index="315425" value="1"/>
  <variable name="X(18,17,584)" index="317779" value="1"/>
  <variable name="X(18,19,13)" index="318990" value="1"/>
  <variable name="X(19,18,624)" index="321383" value="1"/>
  <variable name="X(19,20,598)" index="323139" value="1"/>
  <variable name="X(19,21,599)" index="324922" value="1"/>
  <variable name="X(19,74,13)" index="326118" value="1"/>
  <variable name="X(20,11,669)" index="328556" value="1"/>
  <variable name="X(20,12,636)" index="330305" value="1"/>
  <variable name="X(20,19,386)" index="331837" value="1"/>
  <variable name="X(20,21,15)" index="333248" value="1"/>
  <variable name="X(20,75,14)" index="335029" value="1"/>
  <variable name="X(21,19,708)" index="337505" value="1"/>
  <variable name="X(21,20,720)" index="339299" value="1"/>
  <variable name="X(21,22,16)" index="340377" value="1"/>
  <variable name="X(21,76,15)" index="342158" value="1"/>
  <variable name="X(22,21,741)" index="344666" value="1"/>
  <variable name="X(22,23,22)" index="345729" value="1"/>
  <variable name="X(22,24,601)" index="348090" value="1"/>
  <variable name="X(22,77,16)" index="349287" value="1"/>
  <variable name="X(23,22,772)" index="351825" value="1"/>
  <variable name="X(23,31,22)" index="352857" value="1"/>
  <variable name="X(23,78,96)" index="354713" value="1"/>
  <variable name="X(24,15,783)" index="357182" value="1"/>
  <variable name="X(24,22,522)" index="358703" value="1"/>
  <variable name="X(24,79,17)" index="359980" value="1"/>
  <variable name="X(25,17,11)" index="361756" value="1"/>
  <variable name="X(25,37,109)" index="363636" value="1"/>
  <variable name="X(25,42,373)" index="365682" value="1"/>
  <variable name="X(25,80,18)" index="367109" value="1"/>
  <variable name="X(26,1,79)" index="368952" value="1"/>
  <variable name="X(26,3,2)" index="370657" value="1"/>
  <variable name="X(26,27,19)" index="372456" value="1"/>
  <variable name="X(26,32,4)" index="374223" value="1"/>
  <variable name="X(26,34,23)" index="376024" value="1"/>
  <variable name="X(26,81,99)" index="377882" value="1"/>
  <variable name="X(27,13,1018)" index="380583" value="1"/>
  <variable name="X(27,26,902)" index="382249" value="1"/>
  <variable name="X(27,34,457)" index="383586" value="1"/>
  <variable name="X(27,82,19)" index="384930" value="1"/>
  <variable name="X(28,29,757)" index="387450" value="1"/>
  <variable name="X(28,31,914)" index="389389" value="1"/>
  <variable name="X(28,83,20)" index="390277" value="1"/>
  <variable name="X(29,16,910)" index="392949" value="1"/>
  <variable name="X(29,28,20)" index="393841" value="1"/>
  <variable name="X(29,84,21)" index="395624" value="1"/>
  <variable name="X(30,14,931)" index="398316" value="1"/>
  <variable name="X(30,33,927)" index="400094" value="1"/>
  <variable name="X(30,35,952)" index="401901" value="1"/>
  <variable name="X(30,41,28)" index="402759" value="1"/>
  <variable name="X(30,85,103)" index="404616" value="1"/>
  <variable name="X(31,23,914)" index="407209" value="1"/>
  <variable name="X(31,28,604)" index="408681" value="1"/>
  <variable name="X(31,86,22)" index="409881" value="1"/>
  <variable name="X(32,6,4)" index="411645" value="1"/>
  <variable name="X(32,7,6)" index="413429" value="1"/>
  <variable name="X(32,26,159)" index="415364" value="1"/>
  <variable name="X(32,33,185)" index="417172" value="1"/>
  <variable name="X(32,87,234)" index="419003" value="1"/>
  <variable name="X(33,30,28)" index="420579" value="1"/>
  <variable name="X(33,32,927)" index="423260" value="1"/>
  <variable name="X(33,34,316)" index="424431" value="1"/>
  <variable name="X(33,35,107)" index="426004" value="1"/>
  <variable name="X(33,88,23)" index="427702" value="1"/>
  <variable name="X(34,26,1056)" index="430517" value="1"/>
  <variable name="X(34,27,946)" index="432189" value="1"/>
  <variable name="X(34,33,23)" index="433048" value="1"/>
  <variable name="X(34,89,24)" index="434831" value="1"/>
  <variable name="X(35,14,1105)" index="437694" value="1"/>
  <variable name="X(35,30,1129)" index="439500" value="1"/>
  <variable name="X(35,33,315)" index="440468" value="1"/>
  <variable name="X(35,90,107)" index="442042" value="1"/>
  <variable name="X(36,17,1153)" index="444870" value="1"/>
  <variable name="X(36,37,1170)" index="446669" value="1"/>
  <variable name="X(36,42,1141)" index="448422" value="1"/>
  <variable name="X(36,91,25)" index="449088" value="1"/>
  <variable name="X(37,25,1187)" index="452032" value="1"/>
  <variable name="X(37,36,1212)" index="453839" value="1"/>
  <variable name="X(37,92,109)" index="454518" value="1"/>
  <variable name="X(38,9,1227)" index="457418" value="1"/>
  <variable name="X(38,45,31)" index="458004" value="1"/>
  <variable name="X(38,93,26)" index="459781" value="1"/>
  <variable name="X(39,10,377)" index="461914" value="1"/>
  <variable name="X(39,14,373)" index="463692" value="1"/>
  <variable name="X(39,40,401)" index="465502" value="1"/>
  <variable name="X(39,42,11)" index="466894" value="1"/>
  <variable name="X(39,94,111)" index="468776" value="1"/>
  <variable name="X(40,14,1307)" index="471754" value="1"/>
  <variable name="X(40,39,1318)" index="473547" value="1"/>
  <variable name="X(40,41,193)" index="474204" value="1"/>
  <variable name="X(40,95,27)" index="475820" value="1"/>
  <variable name="X(41,30,1349)" index="478924" value="1"/>
  <variable name="X(41,40,1359)" index="480716" value="1"/>
  <variable name="X(41,96,28)" index="481167" value="1"/>
  <variable name="X(42,25,11)" index="482932" value="1"/>
  <variable name="X(42,36,25)" index="484728" value="1"/>
  <variable name="X(42,39,373)" index="486858" value="1"/>
  <variable name="X(42,43,30)" index="488297" value="1"/>
  <variable name="X(42,97,29)" index="490078" value="1"/>
  <variable name="X(43,42,1427)" index="493258" value="1"/>
  <variable name="X(43,44,30)" index="493643" value="1"/>
  <variable name="X(43,98,115)" index="495510" value="1"/>
  <variable name="X(44,43,1467)" index="498644" value="1"/>
  <variable name="X(44,45,405)" index="499364" value="1"/>
  <variable name="X(44,99,30)" index="500771" value="1"/>
  <variable name="X(45,38,1453)" index="503976" value="1"/>
  <variable name="X(45,44,196)" index="504501" value="1"/>
  <variable name="X(45,100,31)" index="506118" value="1"/>
  <variable name="X(46,3,1540)" index="509409" value="1"/>
  <variable name="X(46,54,37)" index="509688" value="1"/>
  <variable name="X(46,55,39)" index="511472" value="1"/>
  <variable name="X(46,101,32)" index="513247" value="1"/>
  <variable name="X(47,102,33)" index="515030" value="1"/>
  <variable name="X(48,103,34)" index="516813" value="1"/>
  <variable name="X(49,7,1588)" index="520149" value="1"/>
  <variable name="X(49,48,34)" index="520377" value="1"/>
  <variable name="X(49,50,36)" index="522161" value="1"/>
  <variable name="X(49,104,35)" index="523942" value="1"/>
  <variable name="X(50,48,1581)" index="527270" value="1"/>
  <variable name="X(50,49,1635)" index="529106" value="1"/>
  <variable name="X(50,51,1632)" index="530885" value="1"/>
  <variable name="X(50,105,36)" index="531071" value="1"/>
  <variable name="X(51,14,1548)" index="534365" value="1"/>
  <variable name="X(51,50,75)" index="534674" value="1"/>
  <variable name="X(51,52,254)" index="536635" value="1"/>
  <variable name="X(51,53,204)" index="538367" value="1"/>
  <variable name="X(51,54,289)" index="540234" value="1"/>
  <variable name="X(51,106,37)" index="541764" value="1"/>
  <variable name="X(52,51,1727)" index="545236" value="1"/>
  <variable name="X(52,107,254)" index="545545" value="1"/>
  <variable name="X(53,51,1737)" index="548810" value="1"/>
  <variable name="X(53,108,204)" index="549059" value="1"/>
  <variable name="X(54,46,1636)" index="552273" value="1"/>
  <variable name="X(54,51,37)" index="552456" value="1"/>
  <variable name="X(54,52,898)" index="555099" value="1"/>
  <variable name="X(54,109,38)" index="556021" value="1"/>
  <variable name="X(55,7,1544)" index="559309" value="1"/>
  <variable name="X(55,46,198)" index="559745" value="1"/>
  <variable name="X(55,110,39)" index="561368" value="1"/>
 </variables>
</CPLEXSolution>
